92	0

0	3	2	3	4
4	2	5	6
10	7	9	11	15	17	18	19	20
8	6	9	10	11	12	14	19
3	7	9	10	11	12	13	14	19
2	7	7	8	10	12	13	14	16
9	4	21	22	23	26
4	7	9	11	15	17	18	19	20
9	5	27	28	29	30	31
4	5	17	18	20	22	26
7	3	21	24	25
3	6	15	17	18	20	22	26
5	5	17	18	20	22	26
4	5	17	18	20	22	26
7	2	24	25
10	4	21	23	24	25
4	4	21	23	24	25
4	4	21	23	24	25
4	4	21	22	23	26
6	2	24	25
5	4	27	32	35	40
3	2	24	25
7	6	32	33	34	35	38	40
4	4	27	32	35	40
1	5	27	28	29	30	31
4	5	27	28	29	30	31
7	4	33	34	36	38
10	4	33	34	36	38
10	4	33	34	36	38
6	6	32	33	34	35	38	40
5	6	32	33	34	35	38	40
10	3	42	43	44
8	3	45	51	57
3	5	37	39	41	42	44
6	1	36
1	5	37	39	41	42	44
4	1	43
9	2	45	57
10	3	47	48	49
8	3	42	43	44
6	2	45	57
7	3	47	48	49
1	3	45	51	57
9	6	52	53	55	56	58	62
2	2	46	50
2	3	47	48	49
2	6	52	53	55	56	58	62
7	4	64	65	66	70
2	6	52	53	55	56	58	62
4	6	52	53	55	56	58	62
10	7	60	63	64	65	66	68	70
2	3	54	59	61
3	7	60	63	64	65	66	68	70
1	7	60	63	64	65	66	68	70
5	4	64	65	66	70
7	2	64	65
9	7	60	63	64	65	66	68	70
6	2	64	65
1	7	60	63	64	65	66	68	70
8	2	69	73
7	7	64	67	69	71	72	73	74
10	6	67	69	71	72	73	74
7	6	67	69	71	72	73	74
5	5	75	81	83	84	85
3	6	67	69	71	72	73	74
8	5	75	76	77	81	83
10	3	78	79	80
8	2	69	73
1	5	75	76	77	81	83
10	7	78	79	80	81	83	84	85
8	5	78	79	80	84	85
7	6	78	79	80	81	84	85
1	5	75	76	77	81	83
8	5	78	79	80	84	85
6	3	78	79	80
7	3	78	79	80
5	5	78	79	80	84	85
9	2	88	89
5	1	87
2	2	82	86
9	1	87
9	2	88	89
8	1	86
7	1	87
6	2	87	90
1	2	87	90
5	2	88	89
10	1	91
5	1	91
8	1	91
1	1	92
0	0
